NAME : instances/50-tsp/instance-24.tsp
COMMENT : No comment
TYPE : TSP
DIMENSION: 50
EDGE_WEIGHT_TYPE : EUC_2D
NODE_COORD_SECTION
1 1868 1972 
2 716 782 
3 1623 488 
4 1442 1623 
5 321 860 
6 904 1405 
7 951 335 
8 366 1383 
9 447 309 
10 960 637 
11 17 1641 
12 1814 1753 
13 99 1841 
14 233 532 
15 1005 1123 
16 1802 1799 
17 198 31 
18 638 72 
19 652 805 
20 1113 1933 
21 1458 189 
22 1093 879 
23 1457 1366 
24 1194 1089 
25 1152 1796 
26 1923 1255 
27 1959 342 
28 1400 372 
29 1349 958 
30 1865 1965 
31 107 462 
32 1655 1002 
33 1819 1944 
34 344 302 
35 1672 1671 
36 859 933 
37 360 625 
38 1993 632 
39 891 1974 
40 1890 378 
41 135 1508 
42 1713 252 
43 1247 206 
44 689 565 
45 1806 1709 
46 1002 999 
47 581 1711 
48 1389 1266 
49 658 1825 
50 1585 335 
EOF
